4646
4643
4660
4666
4663
4668
4675
4724
4691
4661
4752
4718
4666
4615
4695
4667
4706
4667
4680
4729
4678
4737
4711
4612
4723
4642
4654
4756
4636
4692
4682
4692
4716
4711
4717
4682
4684
4687
4669
4572
4727
4724
4748
4681
4667
4682
4723
4671
4697
4723
4666
4673
4654
4668
4611
4705
4690
4676
4734
4754
4708
4699
4671
4733
4722
4706
4715
4690
4712
4664
4735
4688
4729
4630
4713
4683
4738
4719
4687
4712
4697
4677
4699
4750
4636
4665
4706
4649
4680
4739
4676
4679
4644
4720
4731
4559
4678
4701
4751
4715
